presolving:
(round 1, fast)       1682 del vars, 2802 del conss, 0 add conss, 1725 chg bounds, 0 chg sides, 0 chg coeffs, 0 upgd conss, 0 impls, 779 clqs
(round 2, fast)       1706 del vars, 2903 del conss, 0 add conss, 1725 chg bounds, 22 chg sides, 0 chg coeffs, 0 upgd conss, 0 impls, 779 clqs
   (0.1s) running MILP presolver
   (0.1s) MILP presolver (3 rounds): 2 aggregations, 0 fixings, 0 bound changes
(round 3, exhaustive) 1708 del vars, 2977 del conss, 0 add conss, 1725 chg bounds, 84 chg sides, 0 chg coeffs, 0 upgd conss, 0 impls, 779 clqs
(round 4, exhaustive) 1708 del vars, 2977 del conss, 0 add conss, 1725 chg bounds, 84 chg sides, 0 chg coeffs, 736 upgd conss, 0 impls, 779 clqs
   (0.8s) probing: 1000/3861 (25.9%) - 0 fixings, 0 aggregations, 167651 implications, 0 bound changes
   (0.8s) probing: 1001/3861 (25.9%) - 0 fixings, 0 aggregations, 167828 implications, 0 bound changes
   (0.8s) probing aborted: 1000/1000 successive useless probings
   (0.8s) symmetry computation started: requiring (bin +, int -, cont +), (fixed: bin -, int +, cont -)
   (0.8s) symmetry computation finished: 9 generators found (max: 1500, log10 of symmetry group size: 3.6)
(round 5, exhaustive) 1723 del vars, 2977 del conss, 6 add conss, 1725 chg bounds, 84 chg sides, 0 chg coeffs, 736 upgd conss, 0 impls, 15896 clqs
   (1.0s) probing: 1101/3861 (28.5%) - 0 fixings, 0 aggregations, 185473 implications, 0 bound changes
   (1.0s) probing aborted: 1000/1000 successive useless probings
presolving (6 rounds: 6 fast, 4 medium, 4 exhaustive):
 1723 deleted vars, 2977 deleted constraints, 6 added constraints, 1725 tightened bounds, 0 added holes, 84 changed sides, 0 changed coefficients
 0 implications, 15957 cliques
presolved problem has 3846 variables (3846 bin, 0 int, 0 impl, 0 cont) and 742 constraints
     21 constraints of type <knapsack>
    715 constraints of type <setppc>
      6 constraints of type <orbitope>
Presolving Time: 0.92

 time | node  | left  |LP iter|LP it/n|mem/heur|mdpt |vars |cons |rows |cuts |sepa|confs|strbr|  dualbound   | primalbound  |  gap   | compl. 
t 1.0s|     1 |     0 |     0 |     - | trivial|   0 |3846 | 742 |   0 |   0 |  0 |   0 |   0 | 3.817270e+05 | 5.154112e+04 | 640.63%| unknown
p 1.0s|     1 |     0 |     0 |     - |  clique|   0 |3846 | 742 | 736 |   0 |  0 |   0 |   0 | 3.817270e+05 | 1.221716e+05 | 212.45%| unknown
  1.3s|     1 |     0 |   973 |     - |    72M |   0 |3846 | 743 | 736 |   0 |  0 |   2 |   0 | 1.522154e+05 | 1.221716e+05 |  24.59%| unknown
  1.5s|     1 |     0 |  1087 |     - |    72M |   0 |3846 | 743 | 746 |  10 |  1 |   2 |   0 | 1.516461e+05 | 1.221716e+05 |  24.13%| unknown
  1.6s|     1 |     0 |  1185 |     - |    72M |   0 |3846 | 744 | 753 |  17 |  2 |   3 |   0 | 1.512105e+05 | 1.221716e+05 |  23.77%| unknown
  1.7s|     1 |     0 |  1262 |     - |    73M |   0 |3846 | 744 | 755 |  19 |  3 |   3 |   0 | 1.508551e+05 | 1.221716e+05 |  23.48%| unknown
  1.8s|     1 |     0 |  1404 |     - |    73M |   0 |3846 | 745 | 762 |  26 |  4 |   4 |   0 | 1.501969e+05 | 1.221716e+05 |  22.94%| unknown
  1.9s|     1 |     0 |  1552 |     - |    73M |   0 |3846 | 746 | 774 |  38 |  5 |   5 |   0 | 1.493442e+05 | 1.221716e+05 |  22.24%| unknown
  2.0s|     1 |     0 |  1620 |     - |    73M |   0 |3846 | 746 | 779 |  43 |  6 |   5 |   0 | 1.489543e+05 | 1.221716e+05 |  21.92%| unknown
  2.2s|     1 |     0 |  1675 |     - |    74M |   0 |3846 | 748 | 781 |  45 |  7 |   7 |   0 | 1.485664e+05 | 1.221716e+05 |  21.60%| unknown
  2.3s|     1 |     0 |  1735 |     - |    74M |   0 |3846 | 758 | 786 |  50 |  8 |  17 |   0 | 1.483065e+05 | 1.221716e+05 |  21.39%| unknown
  2.5s|     1 |     0 |  1795 |     - |    75M |   0 |3846 | 758 | 790 |  54 |  9 |  17 |   0 | 1.481701e+05 | 1.221716e+05 |  21.28%| unknown
  2.6s|     1 |     0 |  1850 |     - |    76M |   0 |3846 | 758 | 795 |  59 | 10 |  17 |   0 | 1.480686e+05 | 1.221716e+05 |  21.20%| unknown
  2.7s|     1 |     0 |  1901 |     - |    76M |   0 |3846 | 758 | 798 |  62 | 11 |  17 |   0 | 1.479897e+05 | 1.221716e+05 |  21.13%| unknown
  2.8s|     1 |     0 |  1929 |     - |    77M |   0 |3846 | 758 | 800 |  64 | 12 |  17 |   0 | 1.479551e+05 | 1.221716e+05 |  21.10%| unknown
 time | node  | left  |LP iter|LP it/n|mem/heur|mdpt |vars |cons |rows |cuts |sepa|confs|strbr|  dualbound   | primalbound  |  gap   | compl. 
  2.8s|     1 |     0 |  1969 |     - |    77M |   0 |3846 | 758 | 803 |  67 | 13 |  17 |   0 | 1.478828e+05 | 1.221716e+05 |  21.05%| unknown
  2.9s|     1 |     0 |  1991 |     - |    77M |   0 |3846 | 758 | 804 |  68 | 14 |  17 |   0 | 1.478156e+05 | 1.221716e+05 |  20.99%| unknown
  2.9s|     1 |     0 |  2036 |     - |    77M |   0 |3846 | 762 | 806 |  70 | 15 |  21 |   0 | 1.477834e+05 | 1.221716e+05 |  20.96%| unknown
  3.0s|     1 |     0 |  2060 |     - |    77M |   0 |3846 | 763 | 808 |  72 | 16 |  22 |   0 | 1.477669e+05 | 1.221716e+05 |  20.95%| unknown
  3.0s|     1 |     0 |  2080 |     - |    77M |   0 |3846 | 763 | 804 |  74 | 17 |  22 |   0 | 1.477567e+05 | 1.221716e+05 |  20.94%| unknown
  3.1s|     1 |     0 |  2111 |     - |    77M |   0 |3846 | 763 | 805 |  75 | 18 |  22 |   0 | 1.476847e+05 | 1.221716e+05 |  20.88%| unknown
  3.1s|     1 |     0 |  2139 |     - |    77M |   0 |3846 | 763 | 807 |  77 | 19 |  22 |   0 | 1.476765e+05 | 1.221716e+05 |  20.88%| unknown
  3.2s|     1 |     0 |  2192 |     - |    77M |   0 |3846 | 764 | 808 |  78 | 20 |  23 |   0 | 1.476311e+05 | 1.221716e+05 |  20.84%| unknown
d 3.3s|     1 |     0 |  2823 |     - |farkasdi|   0 |3846 | 765 | 808 |   0 | 22 |  24 |   0 | 1.476311e+05 | 1.369733e+05 |   7.78%| unknown
L 4.6s|     1 |     0 |  3592 |     - |    rens|   0 |3846 | 774 | 808 |  78 | 22 |  33 |   0 | 1.476311e+05 | 1.401064e+05 |   5.37%| unknown
  4.6s|     1 |     0 |  3592 |     - |    78M |   0 |3846 | 774 | 808 |  78 | 22 |  33 |   0 | 1.476311e+05 | 1.401064e+05 |   5.37%| unknown
  4.7s|     1 |     0 |  3598 |     - |    78M |   0 |3846 | 775 | 809 |  79 | 23 |  34 |   0 | 1.476299e+05 | 1.401064e+05 |   5.37%| unknown
  4.7s|     1 |     0 |  3598 |     - |    78M |   0 |3846 | 776 | 809 |  79 | 24 |  35 |   2 | 1.474819e+05 | 1.401064e+05 |   5.26%| unknown
  5.2s|     1 |     0 |  3598 |     - |    78M |   0 |3846 | 776 | 809 |  79 | 26 |  35 |  17 | 1.471026e+05 | 1.401064e+05 |   4.99%| unknown
  6.1s|     1 |     2 |  3598 |     - |    78M |   0 |3846 | 776 | 809 |  79 | 28 |  35 |  50 | 1.471026e+05 | 1.401064e+05 |   4.99%| unknown
 time | node  | left  |LP iter|LP it/n|mem/heur|mdpt |vars |cons |rows |cuts |sepa|confs|strbr|  dualbound   | primalbound  |  gap   | compl. 
 10.8s|   100 |    59 | 12090 |  99.9 |    84M |  14 |3846 | 838 | 801 | 174 |  1 |  97 |  50 | 1.466508e+05 | 1.401064e+05 |   4.67%|   6.22%
d13.0s|   137 |    96 | 17997 | 116.2 |adaptive|  14 |3846 | 926 | 797 |   0 |  1 | 185 |  50 | 1.459964e+05 | 1.402913e+05 |   4.07%|  13.34%
d17.9s|   179 |   136 | 24910 | 127.6 |guideddi|  14 |3846 | 991 | 798 |   0 |  1 | 278 |  50 | 1.459170e+05 | 1.407219e+05 |   3.69%|  16.21%
 18.8s|   200 |   157 | 27339 | 126.3 |    91M |  14 |3846 |1019 | 797 | 328 |  1 | 325 |  50 | 1.459170e+05 | 1.407219e+05 |   3.69%|  16.97%
 23.6s|   300 |   225 | 39075 | 123.3 |    93M |  14 |3846 |1139 | 812 | 494 |  1 | 516 |  50 | 1.456453e+05 | 1.407219e+05 |   3.50%|  22.78%
L27.9s|   379 |   244 | 48920 | 123.6 |crossove|  14 |3846 |1203 | 799 | 720 |  1 | 649 |  50 | 1.453573e+05 | 1.414912e+05 |   2.73%|  29.90%
 28.5s|   400 |   253 | 50712 | 121.6 |    99M |  14 |3846 |1203 | 815 | 751 |  2 | 657 |  50 | 1.453076e+05 | 1.414912e+05 |   2.70%|  31.16%
 35.6s|   500 |   287 | 60392 | 116.6 |   101M |  14 |3846 |1241 | 800 |1028 |  1 | 738 |  50 | 1.450263e+05 | 1.414912e+05 |   2.50%|  37.88%
 39.8s|   600 |   309 | 68486 | 110.7 |   104M |  14 |3846 |1259 | 830 |1296 |  0 | 796 |  50 | 1.446447e+05 | 1.414912e+05 |   2.23%|  44.57%
*40.1s|   619 |   317 | 69164 | 108.4 |    LP  |  14 |3846 |1259 | 808 |1302 |  1 | 800 |  50 | 1.446318e+05 | 1.415213e+05 |   2.20%|  45.23%
 43.1s|   700 |   320 | 75824 | 105.3 |   107M |  15 |3846 |1272 | 817 |1460 |  1 | 835 |  50 | 1.442791e+05 | 1.415213e+05 |   1.95%|  51.39%
*43.6s|   703 |   271 | 76228 | 105.5 |    LP  |  15 |3846 |1272 | 829 |1481 |  3 | 835 |  50 | 1.442088e+05 | 1.417356e+05 |   1.74%|  54.24%
 45.1s|   800 |   262 | 80636 |  98.2 |   107M |  20 |3846 |1273 | 821 |1566 |  0 | 845 |  50 | 1.440292e+05 | 1.417356e+05 |   1.62%|  60.06%
 46.4s|   900 |   252 | 84545 |  91.6 |   107M |  20 |3846 |1277 | 834 |1645 |  0 | 859 |  50 | 1.439833e+05 | 1.417356e+05 |   1.59%|  63.21%
 48.5s|  1000 |   230 | 88793 |  86.7 |   107M |  20 |3846 |1280 | 807 |1744 |  0 | 869 |  50 | 1.439387e+05 | 1.417356e+05 |   1.55%|  67.81%
 time | node  | left  |LP iter|LP it/n|mem/heur|mdpt |vars |cons |rows |cuts |sepa|confs|strbr|  dualbound   | primalbound  |  gap   | compl. 
 51.4s|  1100 |   206 | 93597 |  83.2 |   107M |  20 |3846 |1288 | 836 |1907 |  0 | 890 |  50 | 1.437856e+05 | 1.417356e+05 |   1.45%|  73.28%
 52.5s|  1200 |   192 | 97085 |  79.1 |   108M |  20 |3846 |1287 | 826 |1957 |  1 | 895 |  50 | 1.437540e+05 | 1.417356e+05 |   1.42%|  76.10%
 53.9s|  1300 |   178 |101389 |  76.4 |   108M |  20 |3846 |1286 | 823 |2005 |  0 | 901 |  50 | 1.435254e+05 | 1.417356e+05 |   1.26%|  79.20%
 56.2s|  1400 |   164 |105128 |  73.6 |   108M |  21 |3846 |1286 | 835 |2077 |  1 | 909 |  50 | 1.433242e+05 | 1.417356e+05 |   1.12%|  82.80%
 58.1s|  1500 |   132 |108692 |  71.0 |   108M |  21 |3846 |1287 | 824 |2159 |  1 | 917 |  50 | 1.432202e+05 | 1.417356e+05 |   1.05%|  86.51%
 60.1s|  1600 |    88 |111758 |  68.5 |   109M |  22 |3846 |1291 | 864 |2219 |  0 | 928 |  50 | 1.428995e+05 | 1.417356e+05 |   0.82%|  91.71%
 61.2s|  1700 |    54 |115482 |  66.7 |   109M |  22 |3846 |1291 | 853 |2251 |  0 | 935 |  50 | 1.426942e+05 | 1.417356e+05 |   0.68%|  95.09%
 62.0s|  1800 |     4 |117756 |  64.2 |   109M |  22 |3846 |1290 | 885 |2267 |  0 | 940 |  50 | 1.420552e+05 | 1.417356e+05 |   0.23%|  99.48%

SCIP Status        : problem is solved [optimal solution found]
Solving Time (sec) : 62.00
Solving Nodes      : 1804
Primal Bound       : +1.41735597069189e+05 (26 solutions)
Dual Bound         : +1.41735597069189e+05
Gap                : 0.00 %
Solve Status: optimal
Solve Time: 62.01 seconds
